1600 3120
1 2 1
1 41 3
2 3 2
2 42 1
3 4 2
3 43 2
4 5 1
4 44 2
5 6 4
5 45 2
6 7 2
6 46 4
7 8 2
7 47 3
8 9 5
8 48 1
9 10 4
9 49 5
10 11 2
10 50 5
11 12 3
11 51 3
12 13 4
12 52 2
13 14 1
13 53 5
14 15 4
14 54 2
15 16 2
15 55 2
16 17 4
16 56 3
17 18 3
17 57 1
18 19 2
18 58 3
19 20 3
19 59 2
20 21 4
20 60 5
21 22 4
21 61 2
22 23 2
22 62 4
23 24 1
23 63 1
24 25 1
24 64 4
25 26 5
25 65 2
26 27 2
26 66 5
27 28 1
27 67 4
28 29 2
28 68 3
29 30 1
29 69 1
30 31 3
30 70 4
31 32 2
31 71 2
32 33 4
32 72 2
33 34 5
33 73 2
34 35 4
34 74 1
35 36 5
35 75 1
36 37 1
36 76 2
37 38 1
37 77 2
38 39 1
38 78 4
39 40 2
39 79 5
40 80 3
41 42 2
41 81 4
42 43 3
42 82 3
43 44 3
43 83 2
44 45 2
44 84 4
45 46 5
45 85 1
46 47 2
46 86 1
47 48 4
47 87 5
48 49 4
48 88 1
49 50 1
49 89 1
50 51 4
50 90 5
51 52 1
51 91 5
52 53 1
52 92 3
53 54 2
53 93 1
54 55 5
54 94 1
55 56 4
55 95 3
56 57 3
56 96 3
57 58 3
57 97 5
58 59 2
58 98 5
59 60 5
59 99 1
60 61 4
60 100 2
61 62 3
61 101 2
62 63 2
62 102 3
63 64 4
63 103 5
64 65 1
64 104 5
65 66 3
65 105 5
66 67 2
66 106 1
67 68 4
67 107 1
68 69 1
68 108 2
69 70 2
69 109 3
70 71 5
70 110 5
71 72 5
71 111 2
72 73 5
72 112 1
73 74 2
73 113 1
74 75 1
74 114 1
75 76 1
75 115 5
76 77 4
76 116 2
77 78 2
77 117 4
78 79 1
78 118 5
79 80 1
79 119 3
80 120 1
81 82 5
81 121 1
82 83 2
82 122 1
83 84 2
83 123 2
84 85 4
84 124 1
85 86 2
85 125 1
86 87 1
86 126 5
87 88 1
87 127 3
88 89 3
88 128 2
89 90 4
89 129 4
90 91 3
90 130 5
91 92 2
91 131 2
92 93 4
92 132 2
93 94 4
93 133 5
94 95 5
94 134 1
95 96 3
95 135 5
96 97 5
96 136 4
97 98 4
97 137 1
98 99 5
98 138 5
99 100 1
99 139 1
100 101 4
100 140 1
101 102 5
101 141 4
102 103 1
102 142 4
103 104 4
103 143 2
104 105 2
104 144 3
105 106 3
105 145 1
106 107 3
106 146 1
107 108 1
107 147 2
108 109 4
108 148 2
109 110 2
109 149 2
110 111 1
110 150 1
111 112 1
111 151 4
112 113 4
112 152 1
113 114 4
113 153 4
114 115 1
114 154 2
115 116 3
115 155 2
116 117 3
116 156 4
117 118 5
117 157 2
118 119 5
118 158 2
119 120 3
119 159 2
120 160 1
121 122 1
121 161 4
122 123 5
122 162 4
123 124 4
123 163 2
124 125 2
124 164 3
125 126 1
125 165 4
126 127 5
126 166 2
127 128 1
127 167 3
128 129 3
128 168 2
129 130 4
129 169 2
130 131 5
130 170 1
131 132 4
131 171 3
132 133 5
132 172 2
133 134 4
133 173 1
134 135 3
134 174 3
135 136 3
135 175 2
136 137 1
136 176 1
137 138 3
137 177 5
138 139 1
138 178 4
139 140 3
139 179 4
140 141 1
140 180 2
141 142 5
141 181 1
142 143 2
142 182 3
143 144 1
143 183 5
144 145 5
144 184 4
145 146 2
145 185 2
146 147 2
146 186 4
147 148 1
147 187 3
148 149 4
148 188 3
149 150 5
149 189 5
150 151 5
150 190 3
151 152 4
151 191 5
152 153 4
152 192 5
153 154 2
153 193 3
154 155 2
154 194 3
155 156 3
155 195 1
156 157 3
156 196 4
157 158 4
157 197 3
158 159 2
158 198 5
159 160 5
159 199 3
160 200 3
161 162 3
161 201 2
162 163 2
162 202 3
163 164 2
163 203 5
164 165 2
164 204 2
165 166 1
165 205 5
166 167 4
166 206 2
167 168 3
167 207 4
168 169 1
168 208 5
169 170 3
169 209 2
170 171 3
170 210 3
171 172 2
171 211 3
172 173 4
172 212 5
173 174 5
173 213 4
174 175 2
174 214 4
175 176 5
175 215 2
176 177 3
176 216 4
177 178 4
177 217 3
178 179 2
178 218 2
179 180 4
179 219 2
180 181 5
180 220 2
181 182 4
181 221 4
182 183 1
182 222 1
183 184 2
183 223 3
184 185 5
184 224 4
185 186 1
185 225 2
186 187 5
186 226 2
187 188 3
187 227 5
188 189 2
188 228 5
189 190 1
189 229 3
190 191 3
190 230 2
191 192 4
191 231 5
192 193 1
192 232 4
193 194 4
193 233 5
194 195 2
194 234 4
195 196 4
195 235 5
196 197 1
196 236 3
197 198 2
197 237 2
198 199 1
198 238 1
199 200 3
199 239 5
200 240 3
201 202 1
201 241 2
202 203 2
202 242 4
203 204 2
203 243 3
204 205 2
204 244 4
205 206 4
205 245 2
206 207 4
206 246 3
207 208 2
207 247 4
208 209 3
208 248 4
209 210 5
209 249 1
210 211 4
210 250 4
211 212 5
211 251 3
212 213 5
212 252 2
213 214 2
213 253 2
214 215 1
214 254 4
215 216 1
215 255 4
216 217 1
216 256 3
217 218 4
217 257 5
218 219 1
218 258 4
219 220 4
219 259 1
220 221 5
220 260 4
221 222 5
221 261 3
222 223 1
222 262 5
223 224 5
223 263 5
224 225 5
224 264 1
225 226 5
225 265 1
226 227 2
226 266 1
227 228 3
227 267 4
228 229 1
228 268 3
229 230 5
229 269 2
230 231 4
230 270 2
231 232 1
231 271 4
232 233 1
232 272 1
233 234 5
233 273 4
234 235 3
234 274 1
235 236 5
235 275 5
236 237 5
236 276 2
237 238 4
237 277 2
238 239 3
238 278 1
239 240 1
239 279 5
240 280 1
241 242 3
241 281 3
242 243 2
242 282 1
243 244 1
243 283 1
244 245 3
244 284 4
245 246 4
245 285 4
246 247 2
246 286 5
247 248 5
247 287 2
248 249 5
248 288 1
249 250 1
249 289 2
250 251 2
250 290 1
251 252 4
251 291 4
252 253 5
252 292 2
253 254 1
253 293 3
254 255 4
254 294 2
255 256 3
255 295 2
256 257 4
256 296 2
257 258 4
257 297 5
258 259 1
258 298 4
259 260 5
259 299 2
260 261 5
260 300 3
261 262 5
261 301 1
262 263 3
262 302 1
263 264 3
263 303 3
264 265 1
264 304 3
265 266 1
265 305 5
266 267 5
266 306 4
267 268 3
267 307 2
268 269 3
268 308 2
269 270 4
269 309 2
270 271 3
270 310 4
271 272 2
271 311 4
272 273 3
272 312 5
273 274 2
273 313 5
274 275 2
274 314 1
275 276 4
275 315 2
276 277 2
276 316 4
277 278 1
277 317 5
278 279 4
278 318 4
279 280 4
279 319 1
280 320 1
281 282 1
281 321 3
282 283 1
282 322 2
283 284 1
283 323 3
284 285 1
284 324 5
285 286 5
285 325 3
286 287 2
286 326 5
287 288 4
287 327 2
288 289 3
288 328 1
289 290 5
289 329 4
290 291 1
290 330 4
291 292 1
291 331 5
292 293 2
292 332 4
293 294 2
293 333 2
294 295 5
294 334 5
295 296 5
295 335 2
296 297 3
296 336 2
297 298 5
297 337 4
298 299 3
298 338 2
299 300 2
299 339 5
300 301 1
300 340 4
301 302 3
301 341 1
302 303 5
302 342 4
303 304 1
303 343 3
304 305 2
304 344 1
305 306 3
305 345 5
306 307 4
306 346 3
307 308 4
307 347 5
308 309 2
308 348 4
309 310 5
309 349 2
310 311 2
310 350 5
311 312 4
311 351 1
312 313 4
312 352 1
313 314 4
313 353 5
314 315 1
314 354 4
315 316 4
315 355 5
316 317 2
316 356 2
317 318 4
317 357 4
318 319 5
318 358 5
319 320 1
319 359 5
320 360 3
321 322 4
321 361 2
322 323 3
322 362 2
323 324 4
323 363 2
324 325 2
324 364 3
325 326 1
325 365 3
326 327 5
326 366 2
327 328 2
327 367 3
328 329 2
328 368 4
329 330 2
329 369 4
330 331 3
330 370 5
331 332 1
331 371 5
332 333 2
332 372 4
333 334 1
333 373 1
334 335 4
334 374 5
335 336 4
335 375 2
336 337 5
336 376 2
337 338 1
337 377 5
338 339 2
338 378 5
339 340 2
339 379 1
340 341 1
340 380 1
341 342 4
341 381 3
342 343 4
342 382 1
343 344 3
343 383 1
344 345 4
344 384 4
345 346 3
345 385 2
346 347 1
346 386 1
347 348 2
347 387 2
348 349 2
348 388 4
349 350 3
349 389 2
350 351 4
350 390 2
351 352 4
351 391 2
352 353 1
352 392 2
353 354 2
353 393 5
354 355 3
354 394 3
355 356 4
355 395 5
356 357 3
356 396 1
357 358 3
357 397 2
358 359 3
358 398 2
359 360 2
359 399 5
360 400 5
361 362 5
361 401 3
362 363 2
362 402 2
363 364 2
363 403 5
364 365 2
364 404 5
365 366 3
365 405 4
366 367 5
366 406 2
367 368 4
367 407 2
368 369 3
368 408 4
369 370 1
369 409 1
370 371 1
370 410 1
371 372 4
371 411 1
372 373 3
372 412 4
373 374 5
373 413 4
374 375 3
374 414 1
375 376 5
375 415 5
376 377 1
376 416 4
377 378 3
377 417 4
378 379 3
378 418 2
379 380 1
379 419 5
380 381 4
380 420 4
381 382 5
381 421 3
382 383 3
382 422 5
383 384 4
383 423 3
384 385 2
384 424 2
385 386 4
385 425 3
386 387 1
386 426 5
387 388 5
387 427 3
388 389 1
388 428 3
389 390 4
389 429 2
390 391 3
390 430 3
391 392 5
391 431 3
392 393 2
392 432 4
393 394 1
393 433 4
394 395 3
394 434 1
395 396 5
395 435 5
396 397 5
396 436 1
397 398 2
397 437 5
398 399 4
398 438 4
399 400 4
399 439 1
400 440 1
401 402 4
401 441 1
402 403 5
402 442 1
403 404 4
403 443 3
404 405 4
404 444 5
405 406 4
405 445 3
406 407 5
406 446 1
407 408 1
407 447 2
408 409 4
408 448 3
409 410 4
409 449 4
410 411 4
410 450 4
411 412 2
411 451 1
412 413 1
412 452 4
413 414 3
413 453 1
414 415 5
414 454 2
415 416 3
415 455 5
416 417 5
416 456 4
417 418 4
417 457 3
418 419 3
418 458 2
419 420 2
419 459 4
420 421 4
420 460 1
421 422 1
421 461 4
422 423 3
422 462 4
423 424 5
423 463 5
424 425 4
424 464 2
425 426 2
425 465 3
426 427 2
426 466 5
427 428 3
427 467 3
428 429 2
428 468 1
429 430 2
429 469 2
430 431 5
430 470 1
431 432 4
431 471 1
432 433 3
432 472 1
433 434 2
433 473 2
434 435 5
434 474 5
435 436 3
435 475 2
436 437 2
436 476 5
437 438 5
437 477 2
438 439 2
438 478 2
439 440 3
439 479 2
440 480 3
441 442 3
441 481 1
442 443 3
442 482 2
443 444 4
443 483 3
444 445 4
444 484 2
445 446 4
445 485 3
446 447 3
446 486 3
447 448 5
447 487 5
448 449 3
448 488 1
449 450 3
449 489 3
450 451 5
450 490 5
451 452 3
451 491 2
452 453 3
452 492 5
453 454 1
453 493 3
454 455 1
454 494 2
455 456 3
455 495 4
456 457 3
456 496 1
457 458 4
457 497 5
458 459 4
458 498 5
459 460 2
459 499 4
460 461 3
460 500 4
461 462 3
461 501 1
462 463 5
462 502 5
463 464 5
463 503 5
464 465 3
464 504 3
465 466 4
465 505 5
466 467 4
466 506 4
467 468 5
467 507 5
468 469 3
468 508 2
469 470 1
469 509 2
470 471 5
470 510 3
471 472 5
471 511 5
472 473 2
472 512 3
473 474 2
473 513 1
474 475 1
474 514 1
475 476 2
475 515 3
476 477 2
476 516 2
477 478 4
477 517 2
478 479 3
478 518 2
479 480 3
479 519 1
480 520 5
481 482 1
481 521 2
482 483 4
482 522 5
483 484 4
483 523 2
484 485 2
484 524 2
485 486 2
485 525 1
486 487 4
486 526 4
487 488 1
487 527 4
488 489 4
488 528 4
489 490 5
489 529 5
490 491 5
490 530 5
491 492 3
491 531 3
492 493 4
492 532 1
493 494 1
493 533 3
494 495 3
494 534 4
495 496 2
495 535 2
496 497 5
496 536 2
497 498 4
497 537 1
498 499 5
498 538 3
499 500 5
499 539 1
500 501 2
500 540 2
501 502 4
501 541 1
502 503 3
502 542 5
503 504 5
503 543 5
504 505 5
504 544 4
505 506 1
505 545 3
506 507 2
506 546 5
507 508 1
507 547 5
508 509 1
508 548 1
509 510 5
509 549 1
510 511 2
510 550 1
511 512 5
511 551 3
512 513 4
512 552 4
513 514 2
513 553 5
514 515 4
514 554 4
515 516 5
515 555 2
516 517 3
516 556 1
517 518 5
517 557 5
518 519 4
518 558 4
519 520 4
519 559 2
520 560 1
521 522 5
521 561 2
522 523 1
522 562 4
523 524 3
523 563 1
524 525 1
524 564 3
525 526 4
525 565 2
526 527 5
526 566 4
527 528 5
527 567 3
528 529 4
528 568 1
529 530 5
529 569 5
530 531 5
530 570 4
531 532 2
531 571 2
532 533 5
532 572 1
533 534 2
533 573 3
534 535 1
534 574 1
535 536 1
535 575 1
536 537 4
536 576 4
537 538 2
537 577 5
538 539 5
538 578 4
539 540 2
539 579 4
540 541 2
540 580 2
541 542 5
541 581 1
542 543 3
542 582 1
543 544 5
543 583 5
544 545 5
544 584 4
545 546 5
545 585 4
546 547 4
546 586 1
547 548 1
547 587 1
548 549 3
548 588 2
549 550 4
549 589 2
550 551 5
550 590 2
551 552 5
551 591 4
552 553 3
552 592 4
553 554 5
553 593 5
554 555 2
554 594 2
555 556 3
555 595 2
556 557 4
556 596 3
557 558 2
557 597 4
558 559 2
558 598 1
559 560 1
559 599 4
560 600 1
561 562 3
561 601 1
562 563 3
562 602 4
563 564 1
563 603 5
564 565 1
564 604 4
565 566 3
565 605 1
566 567 5
566 606 3
567 568 2
567 607 4
568 569 1
568 608 4
569 570 3
569 609 2
570 571 4
570 610 4
571 572 5
571 611 4
572 573 3
572 612 1
573 574 2
573 613 3
574 575 3
574 614 3
575 576 5
575 615 1
576 577 2
576 616 4
577 578 5
577 617 2
578 579 3
578 618 3
579 580 2
579 619 3
580 581 1
580 620 3
581 582 5
581 621 2
582 583 1
582 622 5
583 584 2
583 623 4
584 585 3
584 624 2
585 586 5
585 625 1
586 587 4
586 626 2
587 588 4
587 627 2
588 589 5
588 628 3
589 590 5
589 629 2
590 591 4
590 630 1
591 592 5
591 631 4
592 593 1
592 632 5
593 594 2
593 633 1
594 595 2
594 634 4
595 596 3
595 635 1
596 597 2
596 636 3
597 598 5
597 637 4
598 599 3
598 638 5
599 600 2
599 639 4
600 640 3
601 602 1
601 641 4
602 603 1
602 642 1
603 604 3
603 643 5
604 605 5
604 644 2
605 606 3
605 645 1
606 607 3
606 646 5
607 608 1
607 647 4
608 609 3
608 648 5
609 610 1
609 649 4
610 611 3
610 650 3
611 612 4
611 651 3
612 613 2
612 652 2
613 614 1
613 653 4
614 615 3
614 654 3
615 616 3
615 655 4
616 617 3
616 656 3
617 618 3
617 657 3
618 619 1
618 658 4
619 620 3
619 659 4
620 621 4
620 660 1
621 622 1
621 661 2
622 623 1
622 662 4
623 624 5
623 663 4
624 625 4
624 664 3
625 626 5
625 665 3
626 627 4
626 666 2
627 628 4
627 667 4
628 629 2
628 668 1
629 630 5
629 669 2
630 631 2
630 670 3
631 632 4
631 671 3
632 633 5
632 672 3
633 634 3
633 673 4
634 635 4
634 674 3
635 636 1
635 675 1
636 637 4
636 676 4
637 638 1
637 677 5
638 639 3
638 678 2
639 640 5
639 679 3
640 680 3
641 642 2
641 681 2
642 643 3
642 682 5
643 644 4
643 683 5
644 645 5
644 684 3
645 646 2
645 685 4
646 647 2
646 686 5
647 648 4
647 687 3
648 649 3
648 688 5
649 650 3
649 689 5
650 651 3
650 690 4
651 652 2
651 691 2
652 653 3
652 692 3
653 654 3
653 693 5
654 655 4
654 694 4
655 656 3
655 695 1
656 657 5
656 696 5
657 658 2
657 697 1
658 659 3
658 698 5
659 660 5
659 699 2
660 661 2
660 700 4
661 662 4
661 701 3
662 663 1
662 702 5
663 664 2
663 703 2
664 665 2
664 704 2
665 666 4
665 705 2
666 667 5
666 706 3
667 668 3
667 707 5
668 669 3
668 708 5
669 670 2
669 709 1
670 671 2
670 710 4
671 672 3
671 711 5
672 673 3
672 712 4
673 674 3
673 713 3
674 675 1
674 714 3
675 676 2
675 715 3
676 677 3
676 716 5
677 678 5
677 717 3
678 679 3
678 718 1
679 680 5
679 719 3
680 720 1
681 682 3
681 721 2
682 683 2
682 722 2
683 684 2
683 723 4
684 685 2
684 724 2
685 686 4
685 725 4
686 687 1
686 726 1
687 688 2
687 727 3
688 689 4
688 728 2
689 690 5
689 729 5
690 691 5
690 730 1
691 692 3
691 731 2
692 693 5
692 732 5
693 694 2
693 733 2
694 695 5
694 734 4
695 696 3
695 735 3
696 697 4
696 736 3
697 698 4
697 737 1
698 699 5
698 738 4
699 700 3
699 739 3
700 701 5
700 740 1
701 702 2
701 741 1
702 703 3
702 742 2
703 704 5
703 743 2
704 705 4
704 744 5
705 706 2
705 745 4
706 707 4
706 746 1
707 708 4
707 747 3
708 709 5
708 748 5
709 710 1
709 749 3
710 711 5
710 750 5
711 712 2
711 751 4
712 713 1
712 752 3
713 714 2
713 753 4
714 715 3
714 754 4
715 716 4
715 755 1
716 717 5
716 756 4
717 718 5
717 757 4
718 719 5
718 758 2
719 720 2
719 759 1
720 760 3
721 722 5
721 761 4
722 723 5
722 762 1
723 724 2
723 763 4
724 725 2
724 764 3
725 726 4
725 765 2
726 727 3
726 766 3
727 728 2
727 767 2
728 729 5
728 768 2
729 730 2
729 769 5
730 731 4
730 770 1
731 732 4
731 771 3
732 733 3
732 772 2
733 734 1
733 773 4
734 735 1
734 774 3
735 736 4
735 775 4
736 737 3
736 776 5
737 738 4
737 777 4
738 739 5
738 778 1
739 740 2
739 779 2
740 741 1
740 780 2
741 742 4
741 781 3
742 743 1
742 782 2
743 744 3
743 783 5
744 745 4
744 784 2
745 746 4
745 785 4
746 747 1
746 786 3
747 748 4
747 787 1
748 749 1
748 788 3
749 750 1
749 789 2
750 751 1
750 790 5
751 752 2
751 791 2
752 753 5
752 792 3
753 754 4
753 793 4
754 755 5
754 794 3
755 756 4
755 795 5
756 757 2
756 796 2
757 758 4
757 797 3
758 759 3
758 798 5
759 760 4
759 799 1
760 800 5
761 762 5
761 801 5
762 763 3
762 802 2
763 764 4
763 803 3
764 765 1
764 804 1
765 766 3
765 805 3
766 767 2
766 806 2
767 768 4
767 807 1
768 769 2
768 808 2
769 770 3
769 809 2
770 771 2
770 810 3
771 772 4
771 811 3
772 773 3
772 812 5
773 774 5
773 813 2
774 775 1
774 814 1
775 776 3
775 815 1
776 777 5
776 816 3
777 778 1
777 817 1
778 779 2
778 818 4
779 780 4
779 819 3
780 781 3
780 820 1
781 782 4
781 821 4
782 783 2
782 822 5
783 784 5
783 823 1
784 785 5
784 824 4
785 786 2
785 825 2
786 787 4
786 826 3
787 788 3
787 827 2
788 789 5
788 828 4
789 790 5
789 829 5
790 791 2
790 830 3
791 792 2
791 831 1
792 793 5
792 832 2
793 794 1
793 833 5
794 795 2
794 834 3
795 796 1
795 835 4
796 797 1
796 836 5
797 798 1
797 837 3
798 799 5
798 838 2
799 800 2
799 839 4
800 840 5
801 802 2
801 841 1
802 803 1
802 842 4
803 804 4
803 843 1
804 805 2
804 844 5
805 806 1
805 845 3
806 807 2
806 846 3
807 808 3
807 847 5
808 809 4
808 848 3
809 810 5
809 849 2
810 811 3
810 850 2
811 812 5
811 851 4
812 813 2
812 852 5
813 814 3
813 853 3
814 815 4
814 854 5
815 816 3
815 855 4
816 817 1
816 856 3
817 818 5
817 857 5
818 819 4
818 858 3
819 820 1
819 859 5
820 821 3
820 860 2
821 822 3
821 861 4
822 823 4
822 862 3
823 824 2
823 863 3
824 825 3
824 864 3
825 826 5
825 865 1
826 827 4
826 866 1
827 828 3
827 867 3
828 829 1
828 868 4
829 830 2
829 869 2
830 831 1
830 870 4
831 832 4
831 871 3
832 833 3
832 872 5
833 834 5
833 873 4
834 835 5
834 874 5
835 836 5
835 875 3
836 837 5
836 876 2
837 838 2
837 877 4
838 839 4
838 878 5
839 840 1
839 879 4
840 880 2
841 842 2
841 881 5
842 843 5
842 882 2
843 844 3
843 883 5
844 845 4
844 884 2
845 846 3
845 885 5
846 847 1
846 886 3
847 848 2
847 887 1
848 849 1
848 888 2
849 850 3
849 889 5
850 851 1
850 890 5
851 852 3
851 891 2
852 853 5
852 892 2
853 854 5
853 893 4
854 855 4
854 894 5
855 856 4
855 895 5
856 857 3
856 896 5
857 858 1
857 897 2
858 859 2
858 898 3
859 860 3
859 899 2
860 861 4
860 900 1
861 862 4
861 901 4
862 863 5
862 902 4
863 864 4
863 903 1
864 865 5
864 904 5
865 866 1
865 905 2
866 867 1
866 906 4
867 868 1
867 907 5
868 869 4
868 908 5
869 870 5
869 909 1
870 871 5
870 910 2
871 872 2
871 911 3
872 873 3
872 912 2
873 874 4
873 913 5
874 875 4
874 914 2
875 876 1
875 915 3
876 877 5
876 916 4
877 878 2
877 917 1
878 879 1
878 918 5
879 880 1
879 919 4
880 920 1
881 882 3
881 921 2
882 883 2
882 922 5
883 884 1
883 923 2
884 885 4
884 924 4
885 886 2
885 925 4
886 887 3
886 926 2
887 888 5
887 927 2
888 889 4
888 928 1
889 890 4
889 929 3
890 891 5
890 930 2
891 892 1
891 931 5
892 893 3
892 932 5
893 894 1
893 933 2
894 895 4
894 934 4
895 896 2
895 935 2
896 897 5
896 936 3
897 898 1
897 937 4
898 899 4
898 938 4
899 900 4
899 939 2
900 901 2
900 940 3
901 902 5
901 941 4
902 903 1
902 942 4
903 904 1
903 943 1
904 905 4
904 944 3
905 906 3
905 945 5
906 907 1
906 946 4
907 908 1
907 947 3
908 909 4
908 948 4
909 910 4
909 949 4
910 911 5
910 950 2
911 912 2
911 951 5
912 913 3
912 952 4
913 914 3
913 953 1
914 915 1
914 954 3
915 916 3
915 955 5
916 917 2
916 956 3
917 918 4
917 957 4
918 919 4
918 958 5
919 920 2
919 959 2
920 960 4
921 922 3
921 961 2
922 923 2
922 962 3
923 924 2
923 963 5
924 925 5
924 964 3
925 926 1
925 965 2
926 927 2
926 966 4
927 928 4
927 967 5
928 929 5
928 968 1
929 930 4
929 969 1
930 931 1
930 970 4
931 932 5
931 971 2
932 933 4
932 972 3
933 934 2
933 973 2
934 935 1
934 974 1
935 936 5
935 975 1
936 937 2
936 976 1
937 938 4
937 977 2
938 939 3
938 978 4
939 940 2
939 979 4
940 941 4
940 980 1
941 942 2
941 981 5
942 943 3
942 982 4
943 944 4
943 983 1
944 945 3
944 984 4
945 946 2
945 985 5
946 947 1
946 986 4
947 948 1
947 987 1
948 949 5
948 988 2
949 950 5
949 989 4
950 951 4
950 990 5
951 952 1
951 991 5
952 953 1
952 992 5
953 954 2
953 993 4
954 955 5
954 994 5
955 956 4
955 995 3
956 957 4
956 996 1
957 958 4
957 997 1
958 959 3
958 998 5
959 960 4
959 999 5
960 1000 4
961 962 4
961 1001 3
962 963 2
962 1002 4
963 964 1
963 1003 5
964 965 1
964 1004 3
965 966 1
965 1005 5
966 967 4
966 1006 3
967 968 5
967 1007 2
968 969 2
968 1008 3
969 970 2
969 1009 2
970 971 2
970 1010 5
971 972 2
971 1011 2
972 973 2
972 1012 4
973 974 4
973 1013 3
974 975 3
974 1014 3
975 976 1
975 1015 4
976 977 3
976 1016 2
977 978 4
977 1017 5
978 979 5
978 1018 5
979 980 1
979 1019 2
980 981 4
980 1020 2
981 982 4
981 1021 5
982 983 2
982 1022 2
983 984 5
983 1023 2
984 985 4
984 1024 2
985 986 4
985 1025 5
986 987 4
986 1026 2
987 988 1
987 1027 3
988 989 5
988 1028 5
989 990 4
989 1029 1
990 991 3
990 1030 3
991 992 5
991 1031 2
992 993 3
992 1032 5
993 994 1
993 1033 2
994 995 5
994 1034 2
995 996 4
995 1035 1
996 997 4
996 1036 1
997 998 2
997 1037 1
998 999 1
998 1038 4
999 1000 1
999 1039 1
1000 1040 4
1001 1002 2
1001 1041 2
1002 1003 3
1002 1042 3
1003 1004 4
1003 1043 3
1004 1005 2
1004 1044 2
1005 1006 5
1005 1045 2
1006 1007 4
1006 1046 3
1007 1008 2
1007 1047 5
1008 1009 1
1008 1048 2
1009 1010 3
1009 1049 5
1010 1011 3
1010 1050 1
1011 1012 4
1011 1051 1
1012 1013 5
1012 1052 2
1013 1014 5
1013 1053 3
1014 1015 4
1014 1054 1
1015 1016 1
1015 1055 4
1016 1017 1
1016 1056 4
1017 1018 2
1017 1057 1
1018 1019 5
1018 1058 1
1019 1020 4
1019 1059 2
1020 1021 1
1020 1060 3
1021 1022 5
1021 1061 5
1022 1023 2
1022 1062 3
1023 1024 3
1023 1063 5
1024 1025 3
1024 1064 2
1025 1026 5
1025 1065 2
1026 1027 2
1026 1066 1
1027 1028 5
1027 1067 2
1028 1029 3
1028 1068 1
1029 1030 5
1029 1069 2
1030 1031 4
1030 1070 3
1031 1032 3
1031 1071 1
1032 1033 1
1032 1072 5
1033 1034 2
1033 1073 5
1034 1035 2
1034 1074 2
1035 1036 3
1035 1075 1
1036 1037 3
1036 1076 4
1037 1038 1
1037 1077 2
1038 1039 4
1038 1078 3
1039 1040 4
1039 1079 3
1040 1080 2
1041 1042 5
1041 1081 5
1042 1043 1
1042 1082 4
1043 1044 2
1043 1083 1
1044 1045 3
1044 1084 1
1045 1046 2
1045 1085 1
1046 1047 1
1046 1086 5
1047 1048 4
1047 1087 5
1048 1049 3
1048 1088 1
1049 1050 5
1049 1089 5
1050 1051 1
1050 1090 4
1051 1052 2
1051 1091 3
1052 1053 5
1052 1092 4
1053 1054 4
1053 1093 1
1054 1055 5
1054 1094 3
1055 1056 1
1055 1095 2
1056 1057 5
1056 1096 4
1057 1058 4
1057 1097 1
1058 1059 5
1058 1098 2
1059 1060 3
1059 1099 4
1060 1061 4
1060 1100 3
1061 1062 4
1061 1101 3
1062 1063 5
1062 1102 5
1063 1064 1
1063 1103 3
1064 1065 3
1064 1104 5
1065 1066 5
1065 1105 1
1066 1067 2
1066 1106 2
1067 1068 5
1067 1107 3
1068 1069 1
1068 1108 5
1069 1070 1
1069 1109 2
1070 1071 1
1070 1110 2
1071 1072 2
1071 1111 3
1072 1073 5
1072 1112 4
1073 1074 4
1073 1113 3
1074 1075 5
1074 1114 5
1075 1076 5
1075 1115 1
1076 1077 5
1076 1116 1
1077 1078 1
1077 1117 1
1078 1079 2
1078 1118 5
1079 1080 1
1079 1119 1
1080 1120 2
1081 1082 4
1081 1121 5
1082 1083 3
1082 1122 1
1083 1084 1
1083 1123 1
1084 1085 3
1084 1124 1
1085 1086 5
1085 1125 4
1086 1087 4
1086 1126 2
1087 1088 1
1087 1127 3
1088 1089 3
1088 1128 1
1089 1090 4
1089 1129 4
1090 1091 4
1090 1130 1
1091 1092 2
1091 1131 2
1092 1093 2
1092 1132 5
1093 1094 2
1093 1133 2
1094 1095 2
1094 1134 1
1095 1096 4
1095 1135 5
1096 1097 3
1096 1136 2
1097 1098 3
1097 1137 2
1098 1099 3
1098 1138 1
1099 1100 1
1099 1139 5
1100 1101 5
1100 1140 3
1101 1102 3
1101 1141 4
1102 1103 1
1102 1142 2
1103 1104 3
1103 1143 5
1104 1105 4
1104 1144 4
1105 1106 2
1105 1145 5
1106 1107 3
1106 1146 4
1107 1108 2
1107 1147 2
1108 1109 3
1108 1148 3
1109 1110 1
1109 1149 1
1110 1111 5
1110 1150 5
1111 1112 1
1111 1151 3
1112 1113 2
1112 1152 5
1113 1114 5
1113 1153 4
1114 1115 3
1114 1154 5
1115 1116 3
1115 1155 5
1116 1117 3
1116 1156 4
1117 1118 2
1117 1157 1
1118 1119 2
1118 1158 5
1119 1120 4
1119 1159 5
1120 1160 2
1121 1122 3
1121 1161 5
1122 1123 2
1122 1162 3
1123 1124 1
1123 1163 1
1124 1125 2
1124 1164 2
1125 1126 1
1125 1165 1
1126 1127 4
1126 1166 3
1127 1128 1
1127 1167 5
1128 1129 1
1128 1168 3
1129 1130 3
1129 1169 5
1130 1131 5
1130 1170 2
1131 1132 3
1131 1171 2
1132 1133 5
1132 1172 2
1133 1134 1
1133 1173 4
1134 1135 4
1134 1174 3
1135 1136 5
1135 1175 4
1136 1137 3
1136 1176 5
1137 1138 3
1137 1177 2
1138 1139 3
1138 1178 1
1139 1140 2
1139 1179 4
1140 1141 1
1140 1180 4
1141 1142 3
1141 1181 2
1142 1143 1
1142 1182 4
1143 1144 3
1143 1183 5
1144 1145 3
1144 1184 5
1145 1146 1
1145 1185 3
1146 1147 4
1146 1186 3
1147 1148 2
1147 1187 1
1148 1149 4
1148 1188 1
1149 1150 5
1149 1189 3
1150 1151 2
1150 1190 1
1151 1152 4
1151 1191 1
1152 1153 5
1152 1192 5
1153 1154 5
1153 1193 4
1154 1155 3
1154 1194 1
1155 1156 3
1155 1195 5
1156 1157 3
1156 1196 3
1157 1158 4
1157 1197 2
1158 1159 4
1158 1198 4
1159 1160 3
1159 1199 2
1160 1200 2
1161 1162 3
1161 1201 5
1162 1163 1
1162 1202 4
1163 1164 3
1163 1203 1
1164 1165 3
1164 1204 5
1165 1166 3
1165 1205 3
1166 1167 3
1166 1206 3
1167 1168 3
1167 1207 3
1168 1169 4
1168 1208 5
1169 1170 3
1169 1209 4
1170 1171 5
1170 1210 3
1171 1172 1
1171 1211 4
1172 1173 1
1172 1212 1
1173 1174 5
1173 1213 5
1174 1175 3
1174 1214 2
1175 1176 5
1175 1215 1
1176 1177 4
1176 1216 2
1177 1178 5
1177 1217 1
1178 1179 2
1178 1218 4
1179 1180 4
1179 1219 3
1180 1181 3
1180 1220 3
1181 1182 3
1181 1221 1
1182 1183 1
1182 1222 4
1183 1184 1
1183 1223 2
1184 1185 5
1184 1224 5
1185 1186 1
1185 1225 3
1186 1187 4
1186 1226 2
1187 1188 4
1187 1227 1
1188 1189 5
1188 1228 4
1189 1190 5
1189 1229 2
1190 1191 3
1190 1230 4
1191 1192 1
1191 1231 3
1192 1193 1
1192 1232 3
1193 1194 2
1193 1233 5
1194 1195 5
1194 1234 1
1195 1196 2
1195 1235 5
1196 1197 3
1196 1236 1
1197 1198 5
1197 1237 3
1198 1199 3
1198 1238 3
1199 1200 1
1199 1239 1
1200 1240 4
1201 1202 4
1201 1241 2
1202 1203 1
1202 1242 5
1203 1204 5
1203 1243 4
1204 1205 2
1204 1244 3
1205 1206 5
1205 1245 4
1206 1207 4
1206 1246 1
1207 1208 3
1207 1247 1
1208 1209 4
1208 1248 1
1209 1210 4
1209 1249 2
1210 1211 5
1210 1250 5
1211 1212 5
1211 1251 3
1212 1213 1
1212 1252 5
1213 1214 3
1213 1253 2
1214 1215 3
1214 1254 2
1215 1216 2
1215 1255 2
1216 1217 2
1216 1256 1
1217 1218 5
1217 1257 4
1218 1219 3
1218 1258 2
1219 1220 1
1219 1259 1
1220 1221 1
1220 1260 3
1221 1222 5
1221 1261 1
1222 1223 2
1222 1262 4
1223 1224 3
1223 1263 3
1224 1225 5
1224 1264 3
1225 1226 1
1225 1265 4
1226 1227 2
1226 1266 5
1227 1228 5
1227 1267 5
1228 1229 5
1228 1268 2
1229 1230 4
1229 1269 4
1230 1231 4
1230 1270 5
1231 1232 2
1231 1271 4
1232 1233 4
1232 1272 5
1233 1234 1
1233 1273 3
1234 1235 1
1234 1274 5
1235 1236 5
1235 1275 5
1236 1237 4
1236 1276 4
1237 1238 4
1237 1277 1
1238 1239 3
1238 1278 3
1239 1240 3
1239 1279 4
1240 1280 3
1241 1242 1
1241 1281 3
1242 1243 1
1242 1282 2
1243 1244 1
1243 1283 1
1244 1245 2
1244 1284 3
1245 1246 5
1245 1285 1
1246 1247 5
1246 1286 5
1247 1248 3
1247 1287 4
1248 1249 2
1248 1288 1
1249 1250 4
1249 1289 4
1250 1251 2
1250 1290 4
1251 1252 4
1251 1291 5
1252 1253 3
1252 1292 5
1253 1254 3
1253 1293 5
1254 1255 1
1254 1294 3
1255 1256 1
1255 1295 1
1256 1257 3
1256 1296 4
1257 1258 2
1257 1297 4
1258 1259 1
1258 1298 2
1259 1260 1
1259 1299 1
1260 1261 1
1260 1300 5
1261 1262 5
1261 1301 2
1262 1263 3
1262 1302 4
1263 1264 5
1263 1303 1
1264 1265 4
1264 1304 1
1265 1266 3
1265 1305 2
1266 1267 4
1266 1306 3
1267 1268 4
1267 1307 2
1268 1269 5
1268 1308 5
1269 1270 1
1269 1309 5
1270 1271 5
1270 1310 5
1271 1272 3
1271 1311 5
1272 1273 3
1272 1312 4
1273 1274 3
1273 1313 4
1274 1275 1
1274 1314 2
1275 1276 1
1275 1315 2
1276 1277 3
1276 1316 4
1277 1278 5
1277 1317 3
1278 1279 5
1278 1318 2
1279 1280 2
1279 1319 3
1280 1320 2
1281 1282 1
1281 1321 2
1282 1283 5
1282 1322 2
1283 1284 5
1283 1323 3
1284 1285 4
1284 1324 5
1285 1286 1
1285 1325 1
1286 1287 4
1286 1326 4
1287 1288 1
1287 1327 3
1288 1289 1
1288 1328 1
1289 1290 5
1289 1329 1
1290 1291 4
1290 1330 3
1291 1292 1
1291 1331 2
1292 1293 1
1292 1332 4
1293 1294 3
1293 1333 5
1294 1295 5
1294 1334 3
1295 1296 5
1295 1335 5
1296 1297 5
1296 1336 5
1297 1298 1
1297 1337 4
1298 1299 1
1298 1338 1
1299 1300 2
1299 1339 5
1300 1301 2
1300 1340 5
1301 1302 3
1301 1341 4
1302 1303 3
1302 1342 1
1303 1304 2
1303 1343 4
1304 1305 5
1304 1344 4
1305 1306 5
1305 1345 4
1306 1307 5
1306 1346 5
1307 1308 2
1307 1347 3
1308 1309 5
1308 1348 2
1309 1310 5
1309 1349 5
1310 1311 5
1310 1350 2
1311 1312 4
1311 1351 2
1312 1313 1
1312 1352 1
1313 1314 4
1313 1353 4
1314 1315 3
1314 1354 5
1315 1316 4
1315 1355 3
1316 1317 4
1316 1356 1
1317 1318 1
1317 1357 3
1318 1319 2
1318 1358 1
1319 1320 5
1319 1359 1
1320 1360 2
1321 1322 1
1321 1361 5
1322 1323 4
1322 1362 4
1323 1324 5
1323 1363 5
1324 1325 2
1324 1364 4
1325 1326 3
1325 1365 2
1326 1327 5
1326 1366 5
1327 1328 4
1327 1367 4
1328 1329 4
1328 1368 1
1329 1330 2
1329 1369 5
1330 1331 4
1330 1370 4
1331 1332 3
1331 1371 2
1332 1333 5
1332 1372 1
1333 1334 5
1333 1373 1
1334 1335 1
1334 1374 4
1335 1336 4
1335 1375 4
1336 1337 2
1336 1376 2
1337 1338 2
1337 1377 3
1338 1339 5
1338 1378 2
1339 1340 4
1339 1379 4
1340 1341 1
1340 1380 5
1341 1342 4
1341 1381 4
1342 1343 2
1342 1382 5
1343 1344 2
1343 1383 3
1344 1345 3
1344 1384 1
1345 1346 1
1345 1385 1
1346 1347 4
1346 1386 3
1347 1348 4
1347 1387 1
1348 1349 1
1348 1388 4
1349 1350 3
1349 1389 2
1350 1351 1
1350 1390 3
1351 1352 3
1351 1391 1
1352 1353 1
1352 1392 1
1353 1354 4
1353 1393 3
1354 1355 3
1354 1394 2
1355 1356 2
1355 1395 1
1356 1357 4
1356 1396 4
1357 1358 5
1357 1397 2
1358 1359 2
1358 1398 5
1359 1360 3
1359 1399 1
1360 1400 2
1361 1362 5
1361 1401 1
1362 1363 2
1362 1402 4
1363 1364 5
1363 1403 1
1364 1365 5
1364 1404 2
1365 1366 2
1365 1405 4
1366 1367 5
1366 1406 3
1367 1368 4
1367 1407 2
1368 1369 4
1368 1408 1
1369 1370 1
1369 1409 5
1370 1371 3
1370 1410 1
1371 1372 2
1371 1411 1
1372 1373 2
1372 1412 3
1373 1374 4
1373 1413 2
1374 1375 1
1374 1414 1
1375 1376 3
1375 1415 3
1376 1377 2
1376 1416 5
1377 1378 3
1377 1417 1
1378 1379 1
1378 1418 1
1379 1380 1
1379 1419 1
1380 1381 5
1380 1420 1
1381 1382 5
1381 1421 1
1382 1383 4
1382 1422 3
1383 1384 5
1383 1423 2
1384 1385 5
1384 1424 2
1385 1386 1
1385 1425 2
1386 1387 3
1386 1426 3
1387 1388 4
1387 1427 1
1388 1389 3
1388 1428 2
1389 1390 1
1389 1429 3
1390 1391 1
1390 1430 4
1391 1392 5
1391 1431 5
1392 1393 2
1392 1432 1
1393 1394 4
1393 1433 5
1394 1395 3
1394 1434 3
1395 1396 2
1395 1435 2
1396 1397 3
1396 1436 3
1397 1398 4
1397 1437 4
1398 1399 4
1398 1438 2
1399 1400 4
1399 1439 4
1400 1440 1
1401 1402 4
1401 1441 2
1402 1403 2
1402 1442 5
1403 1404 4
1403 1443 3
1404 1405 3
1404 1444 2
1405 1406 2
1405 1445 3
1406 1407 1
1406 1446 2
1407 1408 3
1407 1447 1
1408 1409 3
1408 1448 1
1409 1410 3
1409 1449 4
1410 1411 5
1410 1450 3
1411 1412 4
1411 1451 4
1412 1413 5
1412 1452 3
1413 1414 2
1413 1453 1
1414 1415 5
1414 1454 3
1415 1416 5
1415 1455 4
1416 1417 5
1416 1456 5
1417 1418 5
1417 1457 4
1418 1419 1
1418 1458 3
1419 1420 2
1419 1459 5
1420 1421 1
1420 1460 5
1421 1422 4
1421 1461 4
1422 1423 3
1422 1462 3
1423 1424 3
1423 1463 4
1424 1425 2
1424 1464 2
1425 1426 5
1425 1465 3
1426 1427 3
1426 1466 1
1427 1428 1
1427 1467 4
1428 1429 4
1428 1468 5
1429 1430 1
1429 1469 3
1430 1431 3
1430 1470 5
1431 1432 5
1431 1471 1
1432 1433 3
1432 1472 3
1433 1434 4
1433 1473 1
1434 1435 1
1434 1474 5
1435 1436 5
1435 1475 4
1436 1437 4
1436 1476 1
1437 1438 1
1437 1477 2
1438 1439 3
1438 1478 5
1439 1440 2
1439 1479 2
1440 1480 2
1441 1442 5
1441 1481 5
1442 1443 2
1442 1482 3
1443 1444 4
1443 1483 5
1444 1445 3
1444 1484 1
1445 1446 2
1445 1485 3
1446 1447 2
1446 1486 2
1447 1448 3
1447 1487 5
1448 1449 5
1448 1488 3
1449 1450 1
1449 1489 1
1450 1451 4
1450 1490 2
1451 1452 3
1451 1491 3
1452 1453 4
1452 1492 1
1453 1454 5
1453 1493 5
1454 1455 5
1454 1494 4
1455 1456 4
1455 1495 5
1456 1457 1
1456 1496 3
1457 1458 2
1457 1497 5
1458 1459 4
1458 1498 1
1459 1460 3
1459 1499 4
1460 1461 3
1460 1500 3
1461 1462 5
1461 1501 5
1462 1463 4
1462 1502 3
1463 1464 2
1463 1503 4
1464 1465 3
1464 1504 5
1465 1466 3
1465 1505 2
1466 1467 5
1466 1506 2
1467 1468 1
1467 1507 3
1468 1469 4
1468 1508 5
1469 1470 1
1469 1509 1
1470 1471 1
1470 1510 5
1471 1472 3
1471 1511 4
1472 1473 2
1472 1512 4
1473 1474 1
1473 1513 1
1474 1475 2
1474 1514 2
1475 1476 1
1475 1515 4
1476 1477 4
1476 1516 3
1477 1478 5
1477 1517 1
1478 1479 4
1478 1518 1
1479 1480 1
1479 1519 5
1480 1520 5
1481 1482 1
1481 1521 4
1482 1483 5
1482 1522 3
1483 1484 5
1483 1523 2
1484 1485 1
1484 1524 1
1485 1486 2
1485 1525 3
1486 1487 2
1486 1526 5
1487 1488 1
1487 1527 4
1488 1489 1
1488 1528 5
1489 1490 2
1489 1529 5
1490 1491 5
1490 1530 3
1491 1492 3
1491 1531 2
1492 1493 5
1492 1532 4
1493 1494 4
1493 1533 1
1494 1495 2
1494 1534 5
1495 1496 5
1495 1535 3
1496 1497 3
1496 1536 1
1497 1498 4
1497 1537 3
1498 1499 4
1498 1538 2
1499 1500 4
1499 1539 4
1500 1501 2
1500 1540 1
1501 1502 2
1501 1541 5
1502 1503 2
1502 1542 1
1503 1504 1
1503 1543 5
1504 1505 2
1504 1544 2
1505 1506 5
1505 1545 3
1506 1507 4
1506 1546 3
1507 1508 3
1507 1547 1
1508 1509 3
1508 1548 2
1509 1510 5
1509 1549 3
1510 1511 3
1510 1550 5
1511 1512 4
1511 1551 2
1512 1513 3
1512 1552 4
1513 1514 4
1513 1553 3
1514 1515 5
1514 1554 4
1515 1516 2
1515 1555 4
1516 1517 1
1516 1556 1
1517 1518 3
1517 1557 5
1518 1519 5
1518 1558 4
1519 1520 2
1519 1559 1
1520 1560 1
1521 1522 1
1521 1561 1
1522 1523 4
1522 1562 4
1523 1524 3
1523 1563 3
1524 1525 5
1524 1564 5
1525 1526 4
1525 1565 4
1526 1527 2
1526 1566 2
1527 1528 3
1527 1567 1
1528 1529 2
1528 1568 3
1529 1530 5
1529 1569 1
1530 1531 5
1530 1570 5
1531 1532 1
1531 1571 2
1532 1533 5
1532 1572 5
1533 1534 2
1533 1573 1
1534 1535 3
1534 1574 3
1535 1536 2
1535 1575 5
1536 1537 5
1536 1576 5
1537 1538 2
1537 1577 2
1538 1539 5
1538 1578 3
1539 1540 3
1539 1579 4
1540 1541 4
1540 1580 3
1541 1542 3
1541 1581 4
1542 1543 4
1542 1582 5
1543 1544 2
1543 1583 2
1544 1545 4
1544 1584 2
1545 1546 4
1545 1585 5
1546 1547 2
1546 1586 2
1547 1548 5
1547 1587 3
1548 1549 1
1548 1588 3
1549 1550 3
1549 1589 1
1550 1551 4
1550 1590 3
1551 1552 5
1551 1591 3
1552 1553 2
1552 1592 5
1553 1554 1
1553 1593 2
1554 1555 1
1554 1594 3
1555 1556 4
1555 1595 2
1556 1557 2
1556 1596 2
1557 1558 1
1557 1597 4
1558 1559 3
1558 1598 5
1559 1560 3
1559 1599 2
1560 1600 2
1561 1562 1
1562 1563 1
1563 1564 4
1564 1565 3
1565 1566 4
1566 1567 1
1567 1568 3
1568 1569 4
1569 1570 5
1570 1571 4
1571 1572 5
1572 1573 1
1573 1574 4
1574 1575 2
1575 1576 4
1576 1577 1
1577 1578 5
1578 1579 1
1579 1580 5
1580 1581 3
1581 1582 4
1582 1583 2
1583 1584 2
1584 1585 5
1585 1586 2
1586 1587 3
1587 1588 3
1588 1589 5
1589 1590 3
1590 1591 5
1591 1592 4
1592 1593 1
1593 1594 4
1594 1595 3
1595 1596 1
1596 1597 3
1597 1598 5
1598 1599 3
1599 1600 2
